Version identifier: 12.10.0.0 | 2019-11-26 | 843d4de
CPXPARAM_WorkMem                                 28672
Tried aggregator 2 times.
Aggregator did 50 substitutions.
Reduced MIP has 163 rows, 180 columns, and 771 nonzeros.
Reduced MIP has 180 binaries, 0 generals, 0 SOSs, and 0 indicators.
Presolve time = 0,00 sec. (0,76 ticks)
Found incumbent of value 150,000000 after 0,00 sec. (1,24 ticks)
Probing time = 0,00 sec. (0,37 ticks)
Tried aggregator 1 time.
Detecting symmetries...
MIP Presolve eliminated 21 rows and 0 columns.
MIP Presolve added 42 rows and 0 columns.
Reduced MIP has 184 rows, 180 columns, and 792 nonzeros.
Reduced MIP has 180 binaries, 0 generals, 0 SOSs, and 0 indicators.
Presolve time = 0,00 sec. (1,03 ticks)
Probing time = 0,00 sec. (0,36 ticks)
Clique table members: 571.
MIP emphasis: balance optimality and feasibility.
MIP search method: dynamic search.
Parallel mode: deterministic, using up to 16 threads.
Root relaxation solution time = 0,00 sec. (0,47 ticks)

        Nodes                                         Cuts/
   Node  Left     Objective  IInf  Best Integer    Best Bound    ItCnt     Gap

*     0+    0                          150,0000        0,0000           100,00%
*     0+    0                          104,0000        0,0000           100,00%
      0     0       50,0000   168      104,0000       50,0000       45   51,92%
      0     0       50,1435   168      104,0000     Cuts: 147       87   51,79%
      0     0       51,2550   168      104,0000     Cuts: 148      110   50,72%
*     0+    0                          101,0000       51,2550            49,25%
      0     0       51,9043   168      101,0000     Cuts: 146      123   48,61%
      0     0       52,1788   168      101,0000       Cuts: 5      140   48,34%
*     0+    0                           98,0000       52,1788            46,76%
      0     0       52,2684   168       98,0000       Cuts: 7      151   46,66%
      0     0       57,9480   168       98,0000     Cuts: 146      233   40,87%
      0     0       57,9828   168       98,0000      Fract: 3      237   40,83%
*     0+    0                           95,0000       57,9828            38,97%
      0     2       57,9828   167       95,0000       82,1333      237   13,54%
Elapsed time = 0,11 sec. (45,95 ticks, tree = 0,02 MB, solutions = 5)

Clique cuts applied:  67
Cover cuts applied:  168
Implied bound cuts applied:  4
Flow cuts applied:  5
Mixed integer rounding cuts applied:  61
Zero-half cuts applied:  16
Gomory fractional cuts applied:  11

Root node processing (before b&c):
  Real time             =    0,11 sec. (45,70 ticks)
Parallel b&c, 16 threads:
  Real time             =    0,06 sec. (32,76 ticks)
  Sync time (average)   =    0,04 sec.
  Wait time (average)   =    0,00 sec.
                          ------------
Total (root+branch&cut) =    0,17 sec. (78,45 ticks)
